(set-logic HORN)
(declare-fun inv ((_ BitVec 8) (_ BitVec 8) ) Bool)
(assert (forall ((x (_ BitVec 8)) (y (_ BitVec 8))) 
       (=> ( and ( = x (_ bv0 8) ) ( = y (_ bv0 8) ) ) (inv x y))))
(assert (forall ((x (_ BitVec 8)) (y (_ BitVec 8)) (x! (_ BitVec 8)) (y! (_ BitVec 8))) 
       (=> (and (inv x y) ( or ( and ( = x! ( bvadd x (_ bv1 8) ) ) ( = y! ( bvadd y (_ bv100 8) ) ) ) ( and ( bvsge x (_ bv4 8) ) ( = x! ( bvadd x (_ bv1 8) ) ) ( = y! ( bvadd y (_ bv1 8) ) ) ) ( and ( bvslt x (_ bv0 8) ) ( = x! x ) ( = y! ( bvsub y (_ bv1 8) ) ) ) ( and ( = x! x ) ( = y! y ) ) )) (inv x! y!))))
(assert (forall ((x (_ BitVec 8)) (y (_ BitVec 8))) 
       (=> (inv x y) ( or ( bvslt x (_ bv4 8) ) ( bvsgt y (_ bv2 8) ) ))))
(check-sat)
